89 80 
33 70 
76 38 
9 82 
50 83 
38 29 
0 50 
36 18 
18 70 
46 74 
47 50 
27 36 
56 6 
90 95 
23 78 
24 13 
59 57 
35 87 
47 44 
21 49 
80 59 
79 32 
61 15 
50 31 
37 97 
5 85 
99 33 
73 7 
91 15 
2 66 
94 27 
31 5 
36 66 
92 84 
63 13 
33 43 
24 64 
75 38 
32 78 
69 69 
75 75 
6 74 
8 31 
34 51 
47 36 
17 41 
63 1 
46 52 
67 90 
36 30 
